20
587 233 220
99 68 23
68 52 40
101 66 61
57 56 22
81 54 47
86 34 25
54 46 27
95 65 34
105 57 29
120 63 28
64 62 42
78 65 21
98 94 45
94 58 26
113 81 51
83 80 76
86 64 53
68 44 33
52 40 31
95 67 38
thpack7_54